num_tasks = 4; 
num_machines = 2;  
% For simplicity I round the values to nearest integer
%           A B C D E F G
%           1 2 3 4 5 6 7
comp_cost = 
	% P1 P2 
	[|10,13, % 1 
	|1,1,    % 2 
	|4,1,	% 3
	|1,1|]; 	% 4 

% comm_cost is a 2d matrix; also represents	precedence constraints
% We have a dag, so we can only access (from, to); 
comm_cost = 
	%1,2,3,4
	[|0,1,1,0 %1
	|0,0,0,1  %2
	|0,0,0,1  %3 
	|0,0,0,0|]; %4

max_time = 1000;
